NAME : portcgen-16-24
COMMENT : portcgen N=16, seed=24
TYPE : TSP
DIMENSION : 16
EDGE_WEIGHT_TYPE : EUC_2D
NODE_COORD_SECTION
1 -232044 300977
2 302058 122819
3 -200351 58233
4 804597 -56426
5 -80010 73240
6 -87924 299958
7 29866 171271
8 169525 -68731
9 93252 278149
10 29337 282215
11 -142202 -480248
12 201016 -374712
13 -185287 -128945
14 204827 292415
15 -230873 -12403
16 -15838 128078
